120
150
96
58
97
67
99
25
45
80
100
21
29
70
68
31
92
85
21
99
45
28
97
94
53
55
85
82
92
58
58
38
99
28
92
32
26
26
73
35
46
85
97
79
71
89
53
99
61
65
76
72
100
71
31
85
76
50
30
76
51
76
88
88
62
26
65
30
73
48
82
82
79
85
79
78
87
87
99
85
92
89
49
65
58
92
73
58
94
92
79
97
100
26
61
97
53
85
58
63
49
53
56
65
63
23
32
85
85
37
100
68
49
65
72
71
71
68
71
76
63
28
